nbNodes = 12;
nbVehi = 3;
nbServi = 4;
%numdays = 5;

%tá com uma linha a mais que o nbServi (4)
%e e l têm que ser array2d - múltiplos serviços; linha: serviço/coluna: paciente

%adicionar implicações: S2 -> S1 (precedencia) - gerar novas info para a entrada
%serviços duplos
e = 
 [|    0,   59,    7,   28,  134,  205,   40,  318,  379,  433,  144,    0,
 |    0,  330,  392,  100,  309,   38,  475,  190,  458,  371,  427,    0,
 |    0,  461,  479,  407,   87,  239,  434,  454,  349,  227,  294,    0,
 |    0,  264,  393,  320,  206,   31,  321,  154,  340,  246,  454,    0,
 |];

l = 
 [| 480, 136,  71, 133, 228, 270, 101, 425, 486, 506, 236, 480,
 | 480, 418, 464, 211, 393, 124, 571, 310, 534, 484, 511, 480,
 | 480, 557, 548, 500, 180, 315, 544, 540, 462, 291, 396, 480,
 | 480, 368, 471, 383, 297, 114, 437, 236, 424, 308, 559, 480,
 |];

a = 
 [|  1,  1,  1,  1,
 |  1,  1,  1,  1,
 |  1,  1,  1,  1,
 |];

p = array3d(1..nbNodes,1..nbVehi,1..nbServi,
[  0,  0,  0,  0,	  0,  0,  0,  0,	  0,  0,  0,  0,	
 32, 26, 24, 17,	 20, 29, 15, 22,	 23, 23, 32, 11,	
 12, 15, 21, 15,	 33, 16, 22, 13,	 31, 14, 31, 11,	
 33, 11, 30, 29,	 27, 31, 24, 24,	 24, 15, 33, 34,	
 34, 30, 22, 27,	 29, 33, 31, 24,	 41, 26, 17, 40,	
 23, 24, 33, 14,	 15, 29, 14, 30,	 21, 10, 28, 25,	
 16, 13, 12, 29,	 14, 28, 21, 19,	 19, 28, 21, 33,	
 32, 20, 40, 24,	 17, 38, 14, 12,	 36, 35, 23, 21,	
 14, 19, 14, 33,	 28, 12, 16, 22,	 32, 18, 18, 36,	
 18, 27, 15, 20,	 13, 27, 11, 19,	 29, 25, 33, 28,	
 28, 36, 20, 18,	 11, 28, 30, 19,	 26, 29, 17, 14,	
  0,  0,  0,  0,	  0,  0,  0,  0,	  0,  0,  0,  0,	
]);

rs = 
[|true,true,true,true,
 |true,true,true,false,
 |true,false,true,true,
 |true,true,true,false,
 |false,true,false,true,
 |true,false,true,true,
 |false,false,true,true,
 |false,true,false,true,
 |true,false,true,true,
 |false,true,false,true,
 |true,true,true,false,
 |true,true,true,true,
 |];

d=[|0, 13, 24, 14, 6, 11, 12, 8, 0, 24, 7, 0, 
|13, 0, 27, 3, 19, 22, 14, 10, 13, 31, 12, 13, 
|24, 27, 0, 24, 21, 35, 13, 18, 24, 49, 30, 24, 
|14, 3, 24, 0, 18, 24, 11, 9, 14, 34, 14, 14, 
|6, 19, 21, 18, 0, 14, 12, 10, 6, 28, 13, 6, 
|11, 22, 35, 24, 14, 0, 23, 20, 11, 13, 10, 11, 
|12, 14, 13, 11, 12, 23, 0, 4, 12, 36, 17, 12, 
|8, 10, 18, 9, 10, 20, 4, 0, 8, 32, 12, 8, 
|0, 13, 24, 14, 6, 11, 12, 8, 0, 24, 7, 0, 
|24, 31, 49, 34, 28, 13, 36, 32, 24, 0, 20, 24, 
|7, 12, 30, 14, 13, 10, 17, 12, 7, 20, 0, 7, 
|0, 13, 24, 14, 6, 11, 12, 8, 0, 24, 7, 0, 
|];

%coord=[ |0,0,| -12,-7, |-14,20, |-14,-4, |2,6,| 10,-6, |-10,7, |-8,3, |0,0, |17,-18, |0,-7, |0,0,| ];

